NAME: temp3.png
TYPE: TSP
DIMENSION: 574
EDGE_WEIGHT_TYPE: EUC_2D
NODE_COORD_SECTION
1 446.5 37.0
2 489.5 37.0
3 702.5 37.0
4 425.5 58.0
5 510.5 58.0
6 659.5 58.0
7 723.5 58.0
8 531.5 79.0
9 638.5 79.0
10 681.5 79.0
11 723.5 79.0
12 766.5 79.0
13 553.5 101.0
14 638.5 101.0
15 702.5 101.0
16 787.5 101.0
17 425.5 122.0
18 489.5 122.0
19 553.5 122.0
20 574.5 122.0
21 638.5 122.0
22 787.5 122.0
23 1022.5 122.0
24 1043.5 122.0
25 425.5 143.0
26 489.5 143.0
27 574.5 143.0
28 809.5 143.0
29 1001.5 143.0
30 1065.5 143.0
31 169.5 165.0
32 190.5 165.0
33 211.5 165.0
34 233.5 165.0
35 446.5 165.0
36 489.5 165.0
37 510.5 165.0
38 574.5 165.0
39 787.5 165.0
40 894.5 165.0
41 937.5 165.0
42 1065.5 165.0
43 169.5 186.0
44 190.5 186.0
45 510.5 186.0
46 617.5 186.0
47 766.5 186.0
48 830.5 186.0
49 851.5 186.0
50 873.5 186.0
51 169.5 207.0
52 446.5 207.0
53 510.5 207.0
54 553.5 207.0
55 702.5 207.0
56 745.5 207.0
57 809.5 207.0
58 1043.5 207.0
59 190.5 229.0
60 467.5 229.0
61 510.5 229.0
62 553.5 229.0
63 574.5 229.0
64 702.5 229.0
65 723.5 229.0
66 766.5 229.0
67 915.5 229.0
68 937.5 229.0
69 1043.5 229.0
70 702.5 250.0
71 211.5 271.0
72 339.5 271.0
73 382.5 271.0
74 403.5 271.0
75 510.5 271.0
76 659.5 271.0
77 681.5 271.0
78 851.5 271.0
79 894.5 271.0
80 1022.5 271.0
81 233.5 293.0
82 361.5 293.0
83 425.5 293.0
84 446.5 293.0
85 531.5 293.0
86 659.5 293.0
87 809.5 293.0
88 830.5 293.0
89 1022.5 293.0
90 361.5 314.0
91 382.5 314.0
92 467.5 314.0
93 489.5 314.0
94 531.5 314.0
95 638.5 314.0
96 659.5 314.0
97 787.5 314.0
98 809.5 314.0
99 873.5 314.0
100 1001.5 314.0
101 1086.5 314.0
102 1193.5 314.0
103 1214.5 314.0
104 382.5 335.0
105 403.5 335.0
106 510.5 335.0
107 553.5 335.0
108 638.5 335.0
109 659.5 335.0
110 766.5 335.0
111 787.5 335.0
112 851.5 335.0
113 1043.5 335.0
114 1065.5 335.0
115 1214.5 335.0
116 1235.5 335.0
117 1257.5 335.0
118 403.5 357.0
119 425.5 357.0
120 531.5 357.0
121 553.5 357.0
122 617.5 357.0
123 638.5 357.0
124 745.5 357.0
125 766.5 357.0
126 830.5 357.0
127 979.5 357.0
128 1022.5 357.0
129 1043.5 357.0
130 1257.5 357.0
131 1278.5 357.0
132 62.5 378.0
133 83.5 378.0
134 105.5 378.0
135 126.5 378.0
136 147.5 378.0
137 425.5 378.0
138 446.5 378.0
139 531.5 378.0
140 553.5 378.0
141 617.5 378.0
142 723.5 378.0
143 745.5 378.0
144 830.5 378.0
145 958.5 378.0
146 1001.5 378.0
147 1022.5 378.0
148 1171.5 378.0
149 1193.5 378.0
150 1278.5 378.0
151 1299.5 378.0
152 41.5 399.0
153 62.5 399.0
154 83.5 399.0
155 318.5 399.0
156 446.5 399.0
157 467.5 399.0
158 553.5 399.0
159 830.5 399.0
160 937.5 399.0
161 1001.5 399.0
162 1150.5 399.0
163 1171.5 399.0
164 41.5 421.0
165 62.5 421.0
166 403.5 421.0
167 467.5 421.0
168 489.5 421.0
169 851.5 421.0
170 915.5 421.0
171 958.5 421.0
172 979.5 421.0
173 1107.5 421.0
174 1129.5 421.0
175 190.5 442.0
176 211.5 442.0
177 233.5 442.0
178 254.5 442.0
179 275.5 442.0
180 297.5 442.0
181 382.5 442.0
182 446.5 442.0
183 467.5 442.0
184 873.5 442.0
185 937.5 442.0
186 958.5 442.0
187 1065.5 442.0
188 1086.5 442.0
189 1107.5 442.0
190 1214.5 442.0
191 62.5 464.0
192 318.5 464.0
193 1022.5 464.0
194 1086.5 464.0
195 83.5 485.0
196 254.5 485.0
197 339.5 485.0
198 361.5 485.0
199 425.5 485.0
200 446.5 485.0
201 915.5 485.0
202 979.5 485.0
203 1001.5 485.0
204 1022.5 485.0
205 1065.5 485.0
206 1171.5 485.0
207 105.5 506.0
208 275.5 506.0
209 297.5 506.0
210 382.5 506.0
211 403.5 506.0
212 425.5 506.0
213 937.5 506.0
214 958.5 506.0
215 979.5 506.0
216 1043.5 506.0
217 1150.5 506.0
218 126.5 527.0
219 147.5 527.0
220 297.5 527.0
221 318.5 527.0
222 403.5 527.0
223 1022.5 527.0
224 1129.5 527.0
225 169.5 549.0
226 318.5 549.0
227 339.5 549.0
228 361.5 549.0
229 958.5 549.0
230 979.5 549.0
231 1001.5 549.0
232 1107.5 549.0
233 361.5 570.0
234 382.5 570.0
235 979.5 570.0
236 1065.5 570.0
237 1086.5 570.0
238 382.5 591.0
239 403.5 591.0
240 1001.5 591.0
241 105.5 613.0
242 254.5 613.0
243 1043.5 613.0
244 1065.5 613.0
245 1086.5 613.0
246 1107.5 613.0
247 1129.5 613.0
248 1150.5 613.0
249 41.5 634.0
250 62.5 634.0
251 318.5 634.0
252 339.5 634.0
253 1001.5 634.0
254 1022.5 634.0
255 1043.5 634.0
256 1065.5 634.0
257 1171.5 634.0
258 1193.5 634.0
259 41.5 655.0
260 297.5 655.0
261 318.5 655.0
262 1214.5 655.0
263 1235.5 655.0
264 254.5 677.0
265 275.5 677.0
266 297.5 677.0
267 1001.5 677.0
268 1022.5 677.0
269 1257.5 677.0
270 190.5 698.0
271 211.5 698.0
272 233.5 698.0
273 254.5 698.0
274 1043.5 698.0
275 1065.5 698.0
276 1086.5 698.0
277 1278.5 698.0
278 147.5 719.0
279 169.5 719.0
280 190.5 719.0
281 254.5 719.0
282 275.5 719.0
283 297.5 719.0
284 318.5 719.0
285 339.5 719.0
286 979.5 719.0
287 1086.5 719.0
288 1129.5 719.0
289 1299.5 719.0
290 318.5 740.0
291 1022.5 740.0
292 1150.5 740.0
293 1278.5 740.0
294 275.5 741.0
295 297.5 741.0
296 1001.5 741.0
297 1043.5 741.0
298 1065.5 741.0
299 1129.5 741.0
300 1299.5 741.0
301 233.5 762.0
302 254.5 762.0
303 275.5 762.0
304 1022.5 762.0
305 1214.5 762.0
306 1235.5 762.0
307 1257.5 762.0
308 1278.5 762.0
309 41.5 783.0
310 211.5 783.0
311 233.5 783.0
312 339.5 783.0
313 1257.5 783.0
314 318.5 804.0
315 958.5 804.0
316 1022.5 804.0
317 1278.5 804.0
318 169.5 805.0
319 275.5 805.0
320 297.5 805.0
321 1043.5 805.0
322 1107.5 805.0
323 62.5 826.0
324 83.5 826.0
325 105.5 826.0
326 190.5 826.0
327 211.5 826.0
328 233.5 826.0
329 254.5 826.0
330 275.5 826.0
331 297.5 826.0
332 382.5 826.0
333 958.5 826.0
334 979.5 826.0
335 1086.5 826.0
336 1150.5 826.0
337 1171.5 826.0
338 1299.5 826.0
339 83.5 847.0
340 105.5 847.0
341 126.5 847.0
342 147.5 847.0
343 169.5 847.0
344 254.5 847.0
345 275.5 847.0
346 339.5 847.0
347 361.5 847.0
348 979.5 847.0
349 1001.5 847.0
350 1022.5 847.0
351 1214.5 847.0
352 1278.5 847.0
353 1299.5 847.0
354 446.5 868.0
355 1022.5 868.0
356 211.5 869.0
357 233.5 869.0
358 297.5 869.0
359 403.5 869.0
360 915.5 869.0
361 937.5 869.0
362 1001.5 869.0
363 1043.5 869.0
364 190.5 890.0
365 211.5 890.0
366 233.5 890.0
367 254.5 890.0
368 318.5 890.0
369 382.5 890.0
370 894.5 890.0
371 937.5 890.0
372 958.5 890.0
373 1065.5 890.0
374 297.5 911.0
375 361.5 911.0
376 425.5 911.0
377 489.5 911.0
378 915.5 911.0
379 958.5 911.0
380 979.5 911.0
381 1065.5 911.0
382 1086.5 911.0
383 254.5 932.0
384 1022.5 932.0
385 1086.5 932.0
386 41.5 933.0
387 275.5 933.0
388 361.5 933.0
389 403.5 933.0
390 467.5 933.0
391 937.5 933.0
392 979.5 933.0
393 1001.5 933.0
394 62.5 954.0
395 83.5 954.0
396 211.5 954.0
397 233.5 954.0
398 254.5 954.0
399 339.5 954.0
400 403.5 954.0
401 446.5 954.0
402 467.5 954.0
403 510.5 954.0
404 574.5 954.0
405 595.5 954.0
406 830.5 954.0
407 958.5 954.0
408 1022.5 954.0
409 1043.5 954.0
410 1065.5 954.0
411 1107.5 954.0
412 1257.5 954.0
413 105.5 975.0
414 126.5 975.0
415 147.5 975.0
416 169.5 975.0
417 190.5 975.0
418 318.5 975.0
419 382.5 975.0
420 425.5 975.0
421 446.5 975.0
422 510.5 975.0
423 553.5 975.0
424 659.5 975.0
425 745.5 975.0
426 766.5 975.0
427 830.5 975.0
428 851.5 975.0
429 873.5 975.0
430 937.5 975.0
431 979.5 975.0
432 1065.5 975.0
433 1086.5 975.0
434 1107.5 975.0
435 1129.5 975.0
436 1278.5 975.0
437 382.5 996.0
438 510.5 996.0
439 766.5 996.0
440 830.5 996.0
441 894.5 996.0
442 958.5 996.0
443 1150.5 996.0
444 425.5 997.0
445 531.5 997.0
446 681.5 997.0
447 1129.5 997.0
448 297.5 1018.0
449 382.5 1018.0
450 425.5 1018.0
451 531.5 1018.0
452 574.5 1018.0
453 638.5 1018.0
454 681.5 1018.0
455 766.5 1018.0
456 787.5 1018.0
457 830.5 1018.0
458 851.5 1018.0
459 915.5 1018.0
460 979.5 1018.0
461 1278.5 1018.0
462 1299.5 1018.0
463 403.5 1039.0
464 489.5 1039.0
465 574.5 1039.0
466 638.5 1039.0
467 851.5 1039.0
468 937.5 1039.0
469 979.5 1039.0
470 1001.5 1039.0
471 1235.5 1039.0
472 1278.5 1039.0
473 382.5 1060.0
474 574.5 1060.0
475 638.5 1060.0
476 958.5 1060.0
477 275.5 1061.0
478 361.5 1061.0
479 723.5 1061.0
480 809.5 1061.0
481 1001.5 1061.0
482 1257.5 1061.0
483 275.5 1082.0
484 467.5 1082.0
485 553.5 1082.0
486 617.5 1082.0
487 723.5 1082.0
488 809.5 1082.0
489 851.5 1082.0
490 873.5 1082.0
491 958.5 1082.0
492 1065.5 1082.0
493 1086.5 1082.0
494 1193.5 1082.0
495 1278.5 1082.0
496 254.5 1124.0
497 830.5 1124.0
498 425.5 1125.0
499 553.5 1125.0
500 873.5 1125.0
501 1129.5 1125.0
502 233.5 1146.0
503 382.5 1146.0
504 403.5 1146.0
505 553.5 1146.0
506 574.5 1146.0
507 595.5 1146.0
508 702.5 1146.0
509 723.5 1146.0
510 851.5 1146.0
511 873.5 1146.0
512 1001.5 1146.0
513 1129.5 1146.0
514 211.5 1167.0
515 339.5 1167.0
516 361.5 1167.0
517 382.5 1167.0
518 553.5 1167.0
519 574.5 1167.0
520 702.5 1167.0
521 723.5 1167.0
522 766.5 1167.0
523 873.5 1167.0
524 894.5 1167.0
525 1022.5 1167.0
526 1129.5 1167.0
527 1150.5 1167.0
528 190.5 1188.0
529 318.5 1188.0
530 574.5 1188.0
531 702.5 1188.0
532 766.5 1188.0
533 894.5 1188.0
534 1150.5 1188.0
535 211.5 1189.0
536 233.5 1189.0
537 297.5 1189.0
538 233.5 1210.0
539 254.5 1210.0
540 574.5 1210.0
541 702.5 1210.0
542 766.5 1210.0
543 915.5 1210.0
544 1065.5 1210.0
545 1086.5 1210.0
546 1150.5 1210.0
547 702.5 1231.0
548 745.5 1231.0
549 830.5 1231.0
550 1001.5 1231.0
551 1107.5 1231.0
552 1129.5 1231.0
553 1150.5 1231.0
554 1171.5 1231.0
555 1150.5 1252.0
556 681.5 1253.0
557 745.5 1253.0
558 937.5 1253.0
559 1001.5 1253.0
560 681.5 1274.0
561 723.5 1274.0
562 873.5 1274.0
563 958.5 1274.0
564 1022.5 1274.0
565 510.5 1295.0
566 638.5 1295.0
567 702.5 1295.0
568 723.5 1295.0
569 894.5 1295.0
570 915.5 1295.0
571 937.5 1295.0
572 1001.5 1295.0
573 1022.5 1295.0
574 1043.5 1295.0
EOF
